10  10
  0  16  1  95  2  93  3  19  4  99  5  41  6  41  7  34  8  49  9  42
  0  74  1  12  2  57  3  8  4  4  5  28  6  43  7  11  8  51  9  42
  0  58  1  71  2  43  3  14  4  52  5  41  6  1  7  70  8  58  9  59
  0  63  1  27  2  78  3  30  4  2  5  15  6  85  7  73  8  71  9  78
  0  73  1  24  2  30  3  31  4  21  5  80  6  24  7  94  8  45  9  52
  0  5  1  61  2  78  3  31  4  36  5  38  6  69  7  92  8  3  9  79
  0  3  1  14  2  38  3  14  4  6  5  55  6  17  7  9  8  56  9  38
  0  95  1  50  2  28  3  17  4  81  5  17  6  32  7  47  8  80  9  70
  0  49  1  67  2  43  3  8  4  54  5  66  6  3  7  36  8  65  9  1
  0  95  1  74  2  98  3  78  4  92  5  77  6  91  7  32  8  72  9  51
